* ENCODING=ISO-8859-1
NAME          CPLEX
ROWS
 N  obj1    
 G  c1      
 G  c2      
 G  c3      
 G  c4      
 G  c5      
 G  c6      
 G  c7      
 G  c8      
 G  c9      
 G  c10     
 G  c11     
 G  c12     
 G  c13     
 G  c14     
 G  c15     
 G  c16     
 G  c17     
 G  c18     
 G  c19     
 G  c20     
 G  c21     
 G  c22     
 G  c23     
 G  c24     
 G  c25     
COLUMNS
    MARK0000  'MARKER'                 'INTORG'
    x1        obj1                            1
    x1        c7                            486
    x1        c11                           398
    x1        c14                           526
    x1        c25                           290
    x2        obj1                            1
    x2        c20                           229
    x3        obj1                            1
    x3        c7                            809
    x3        c12                           764
    x3        c22                           502
    x4        obj1                            1
    x4        c2                            650
    x4        c15                           339
    x4        c22                           446
    x5        obj1                            1
    x5        c11                           216
    x6        obj1                            1
    x6        c25                           794
    x7        obj1                            1
    x7        c9                            332
    x7        c10                           585
    x7        c12                           904
    x7        c17                           265
    x8        obj1                            1
    x8        c6                            954
    x8        c20                           837
    x8        c22                           414
    x9        obj1                            1
    x9        c5                            201
    x10       obj1                            1
    x10       c3                            279
    x10       c24                           743
    x11       obj1                            1
    x12       obj1                            1
    x12       c2                            318
    x12       c16                           778
    x13       obj1                            1
    x13       c1                            894
    x13       c3                            381
    x13       c9                            934
    x13       c14                           697
    x14       obj1                            1
    x14       c20                           837
    x15       obj1                            1
    x15       c8                            285
    x15       c18                           644
    x15       c21                           195
    x16       obj1                            1
    x16       c5                            338
    x16       c14                           755
    x16       c16                           864
    x16       c17                           888
    x16       c20                           588
    x16       c21                           108
    x17       obj1                            1
    x17       c4                            360
    x17       c12                           645
    x17       c13                           275
    x17       c15                           419
    x17       c23                           251
    x17       c24                           795
    x18       obj1                            1
    x18       c3                            536
    x18       c8                            342
    x18       c19                           227
    x18       c20                           589
    x19       obj1                            1
    x19       c5                            257
    x19       c16                           999
    x20       obj1                            1
    x20       c11                           601
    x20       c21                           863
    x20       c25                           713
    x21       obj1                            1
    x21       c10                           124
    x22       obj1                            1
    x22       c14                           398
    x22       c18                           157
    x22       c21                           428
    x23       obj1                            1
    x23       c4                            846
    x23       c13                           233
    x24       obj1                            1
    x24       c1                            184
    x24       c16                           804
    x25       obj1                            1
    x25       c15                           561
    x26       obj1                            1
    x26       c7                            333
    x26       c16                           509
    x27       obj1                            1
    x27       c6                            112
    x27       c14                           947
    x27       c19                           762
    x28       obj1                            1
    x28       c14                           595
    x28       c18                           541
    x29       obj1                            1
    x30       obj1                            1
    x30       c2                            415
    x30       c10                           641
    x31       obj1                            1
    x31       c3                            186
    x31       c4                            426
    x31       c10                           454
    x32       obj1                            1
    x32       c1                            891
    x32       c19                           475
    x33       obj1                            1
    x33       c1                            720
    x33       c7                            537
    x33       c15                           730
    x34       obj1                            1
    x34       c13                           858
    x34       c17                           465
    x35       obj1                            1
    x35       c22                           784
    x35       c24                           481
    x36       obj1                            1
    x36       c14                           352
    x36       c24                           921
    x37       obj1                            1
    x37       c16                           282
    x38       obj1                            1
    x38       c21                           360
    x38       c23                           298
    x39       obj1                            1
    x39       c8                            564
    x39       c21                           576
    x39       c22                           449
    x39       c23                           222
    x39       c25                           572
    x40       obj1                            1
    x40       c18                           253
    x40       c22                           812
    x41       obj1                            1
    x41       c4                            650
    x41       c17                           554
    x41       c20                           957
    x42       obj1                            1
    x42       c4                            940
    x42       c9                            320
    x43       obj1                            1
    x43       c1                            419
    x43       c2                            480
    x43       c5                            673
    x43       c13                           658
    x43       c24                           353
    x44       obj1                            1
    x44       c12                           807
    x44       c13                           190
    x45       obj1                            1
    x45       c17                           322
    x46       obj1                            1
    x46       c13                           117
    x46       c16                           854
    x47       obj1                            1
    x47       c6                            931
    x47       c11                           707
    x47       c24                           466
    x48       obj1                            1
    x48       c1                            470
    x48       c3                            323
    x48       c7                            676
    x48       c11                           955
    x48       c20                           183
    x48       c22                           576
    x48       c24                           573
    x49       obj1                            1
    x49       c23                           228
    x50       obj1                            1
    x50       c12                           515
    MARK0001  'MARKER'                 'INTEND'
RHS
    rhs       c1                           1789
    rhs       c2                            932
    rhs       c3                            853
    rhs       c4                           1611
    rhs       c5                            735
    rhs       c6                            999
    rhs       c7                           1421
    rhs       c8                            596
    rhs       c9                            793
    rhs       c10                           902
    rhs       c11                          1439
    rhs       c12                          1818
    rhs       c13                          1166
    rhs       c14                          2135
    rhs       c15                          1025
    rhs       c16                          2545
    rhs       c17                          1247
    rhs       c18                           798
    rhs       c19                           732
    rhs       c20                          2110
    rhs       c21                          1265
    rhs       c22                          1992
    rhs       c23                           500
    rhs       c24                          2166
    rhs       c25                          1185
BOUNDS
 LI bnd       x1        0
 LI bnd       x2        0
 LI bnd       x3        0
 LI bnd       x4        0
 LI bnd       x5        0
 LI bnd       x6        0
 LI bnd       x7        0
 LI bnd       x8        0
 LI bnd       x9        0
 LI bnd       x10       0
 LI bnd       x11       0
 LI bnd       x12       0
 LI bnd       x13       0
 LI bnd       x14       0
 LI bnd       x15       0
 LI bnd       x16       0
 LI bnd       x17       0
 LI bnd       x18       0
 LI bnd       x19       0
 LI bnd       x20       0
 LI bnd       x21       0
 LI bnd       x22       0
 LI bnd       x23       0
 LI bnd       x24       0
 LI bnd       x25       0
 LI bnd       x26       0
 LI bnd       x27       0
 LI bnd       x28       0
 LI bnd       x29       0
 LI bnd       x30       0
 LI bnd       x31       0
 LI bnd       x32       0
 LI bnd       x33       0
 LI bnd       x34       0
 LI bnd       x35       0
 LI bnd       x36       0
 LI bnd       x37       0
 LI bnd       x38       0
 LI bnd       x39       0
 LI bnd       x40       0
 LI bnd       x41       0
 LI bnd       x42       0
 LI bnd       x43       0
 LI bnd       x44       0
 LI bnd       x45       0
 LI bnd       x46       0
 LI bnd       x47       0
 LI bnd       x48       0
 LI bnd       x49       0
 LI bnd       x50       0
ENDATA
